
Gurobi 7.0.2 (linux64, Matlab) logging started Sun Sep  2 08:54:35 2018


Gurobi 7.0.2 (linux64) logging started Sun Sep  2 08:54:35 2018

Optimize a model with 142752 rows, 1014301 columns and 11537419 nonzeros
Coefficient statistics:
  Matrix range     [5e-01, 5e+00]
  Objective range  [5e-01, 2e+00]
  Bounds range     [2e+06, 8e+06]
  RHS range        [7e-15, 1e+07]
Iteration    Objective       Primal Inf.    Dual Inf.      Time
       0   -1.3194652e+07   0.000000e+00   0.000000e+00      6s

Solved in 0 iterations and 6.28 seconds
Optimal objective -1.319465190e+07
